expected_failures_A=374;
expected_failures_B=287;
expected_failures_C=192;
s=3;
hints=[|
0,0,0,2,0,5,0,0,0|
0,9,0,0,0,0,7,3,0|
0,0,2,0,0,9,0,6,0|
2,0,0,0,0,0,4,0,9|
0,0,0,0,7,0,0,0,0|
6,0,9,0,0,0,0,0,1|
0,8,0,4,0,0,1,0,0|
0,6,3,0,0,0,0,8,0|
0,0,0,6,0,8,0,0,0|];
